time,backstress_0,backstress_1,backstress_2,backstress_3,backstress_4,backstress_5,e_yy,fp_yy,gss,pk2,run_time,slip_increment,stress_yy
0,0,0,0,0,0,0,0,0,0,0,0,0,0
0.025,2.101825773809e-11,-7.9682459093276e-13,-4.7880608001491e-09,-2.101825773674e-11,-7.9682459100373e-13,-4.7880608001491e-09,0.00025003125000003,1.0000000000785,30.800000058138,20.223126932716,0.419304238,8.4073030954127e-12,20.231829790958
0.05,2.153545366042e-08,-8.1645073136438e-10,-4.905889155142e-06,-2.1535453651405e-08,-8.164507318385e-10,-4.905889155142e-06,0.00050012500000002,1.0000000804649,30.800059568505,40.444818327398,0.789144341,8.6057743464057e-09,40.479632341458
0.075,1.1921532041328e-06,-4.5233667470812e-08,-0.00027157186294234,-1.1921532041231e-06,-4.5233667471321e-08,-0.00027157186294234,0.00075028124999995,1.0000044554221,30.803298129729,60.324296197153,1.336008762,4.6824765895511e-07,60.40175465724
