time,backstress_0,backstress_1,backstress_2,backstress_3,backstress_4,backstress_5,e_yy,fp_yy,gss,pk2,run_time,slip_increment,stress_yy
0,0,0,0,0,0,0,0,0,0,0,0,0,0
0.025,0,0,0,0,0,0,0.00025003125000003,1.0000000000785,30.800000058138,20.223133276618,0.351505873,8.4073297849477e-12,20.231836137149
0.05,0,0,0,0,0,0,0.00050012500000002,1.0000000804667,30.800059569907,40.444818327492,0.638314461,8.6059408219354e-09,40.479632341407
0.075,0,0,0,0,0,0,0.00075028124999995,1.0000044602308,30.803301913567,60.323907301864,1.053729745,4.6871082407764e-07,60.401364761921
